NAME: tsp30-20
TYPE: TSP
DIMENSION: 30
EDGE_WEIGHT_TYPE: EUC_2D
NODE_COORD_SECTION
0 73 37
1 7 79
2 66 16
3 65 62
4 71 19
5 85 60
6 19 2
7 24 30
8 70 54
9 84 10
10 79 51
11 46 46
12 11 0
13 16 33
14 41 95
15 39 21
16 78 9
17 72 52
18 16 86
19 56 39
20 35 80
21 84 66
22 36 52
23 79 25
24 34 13
25 39 16
26 91 86
27 64 56
28 92 72
29 15 99
EOF